Au
 1.0000000000000000
    17.3023372502098702    0.0000000000000000    0.0000000000000000
     0.0000000000000000   14.9842636035275341    0.0000000000000000
     0.0000000000000000    0.0000000000000000   40.0000000000000000
 Au 
 216
Selective dynamics
Cartesian
  4.3255843125524676  4.1622954454243146  7.3545498678091317   F   F   F
 17.1851935405716887  5.1177780318076502  9.6712660548421567   T   T   T
  7.2093071875874459 14.1518045144426701  7.3545498678091317   F   F   F
 20.1860601252448504 11.6544272471880817  7.3545498678091317   F   F   F
  5.7157275397961280  5.0107162002893277  9.6057736719731341   T   T   T
  2.9139993536621045  4.8243573504656707  9.6601739844597265   T   T   T
 15.7873244843063709  2.4224061288413319  9.5985690789238927   T   T   T
 12.9341922749358940  2.4775337076548780  9.7258304646625593   T   T   T
 10.0294498862109052  2.4223234913676777  9.6374616737121777   T   T   T
  7.1706718860923981  2.3871716124941891  9.6196916186095311   T   T   T
  4.3911410461202456  2.5280991452728543  9.5096730705361860   T   T   T
  1.4554005259119653  2.4297543356204985  9.7135349820437042   T   T   T
 14.3169975318269618 -0.0269060908157752  9.8831498598964576   T   T   T
 11.5068133230094283 -0.1071642694986497  9.6995011730937168   T   T   T
 15.9476484892968564 12.6438777791014569 16.7528288116989579   T   T   T
 13.0664234249000533 12.4379569446289899 16.7682997404902459   T   T   T
 10.1166888469412850 12.4104823017363852 16.7865656948085267   T   T   T
  7.1164407689711293 12.4976310466979665 16.8695369362905510   T   T   T
 20.1403173297685001  9.8837678000672042 16.8944685990929280   T   T   T
 17.3651939747100670  9.8151925576264389 16.9284204105352494   T   T   T
 14.4218528294061148  9.9229915954504051 16.8486548738674813   T   T   T
 11.6407361261356339  9.8669128843927325 16.8561898422399814   T   T   T
  8.6766611204346145 10.0488704038098806 16.8771693361312281   T   T   T
  5.7479545681348503  9.9704382687833988 16.8935957260187095   T   T   T
  4.4281644804960933  7.4432562380878018  9.6874981556429862   T   T   T
 18.7622517769499666 12.4550386112051648  9.7698793528474397   T   T   T
  7.1856644105139145  7.5428836575364686  9.8528699668637199   T   T   T
 12.8777721137679482  7.5380559645908054  9.6364983327461875   T   T   T
 12.8863042454111145 12.4753118563920271  9.6666904029858678   T   T   T
 10.0607326644799500 12.5344293653358534  9.6139798013015554   T   T   T
  7.2663479633471306 12.4813209629572555  9.7940122544121042   T   T   T
 20.2266628256262102  9.9007363950945173  9.7160676270226354   T   T   T
 17.2221078701738151  9.9276566592385400  9.7425546082709182   T   T   T
 14.3097221401598791 10.0842647784920629  9.8774695463010076   T   T   T
 11.5192103650929774 10.0818868677506224  9.7633208865176382   T   T   T
  8.7386407836983615 10.1195996902651437  9.6431486804734394   T   T   T
 11.5534526662998509  3.3500926652836185 12.0332263520464764   T   T   T
  8.6471486867505352  3.3167604750653981 11.9463487372753292   T   T   T
 15.9116232434514107  7.5844246966879991 16.5064105646299772   T   T   T
 13.0961471566793062  7.4561264911820260 16.6242812602928964   T   T   T
 10.1204850679400025  7.5849348876127678 16.8288697166579908   T   T   T
  7.1842144588255978  7.4894042330621451 16.9446264827329642   T   T   T
  4.3793434903135804  7.5644407897370147 16.9680235643785728   T   T   T
 17.2143344447651145  4.9451483474645004 17.1477533104314510   T   T   T
 14.3369736169186339  4.9654639712419630 16.8821159973749211   T   T   T
 11.5650772097624959  5.0138213225156747 16.9593175971487362   T   T   T
  8.6363597165950257  5.0838793365686410 16.8022612683697261   T   T   T
  6.0535994581879233  5.1376197962912071 16.9138361617360076   T   T   T
  5.9220531776051875 10.1383816541499119  9.7649078395436941   T   T   T
 18.8327327746038087  7.4715629598906910  9.7162783095533918   T   T   T
 15.9025803814005524  7.5340358488750985  9.6354810017213719   T   T   T
  9.9924324164345215  7.5668331788645817  9.8850346019009230   T   T   T
 15.8310747720875771 12.4027408929274152  9.6140788900074039   T   T   T
 21.4731435439796137 12.3612026277316911 16.9136468587094519   T   T   T
  2.9618842942969370 -0.0713714361767109  9.8343236535835370   T   T   T
  2.8837228750349784  6.6596727126789030  7.3545498678091317   F   F   F
 15.8604758126923802  4.1622954454243146  7.3545498678091317   F   F   F
 12.9767529376574018  4.1622954454243146  7.3545498678091317   F   F   F
 10.0930300626224234  4.1622954454243146  7.3545498678091317   F   F   F
  7.2093071875874459  4.1622954454243146  7.3545498678091317   F   F   F
 17.3023372502098702 11.6544272471880817  7.3545498678091317   F   F   F
 14.4186143751748919  8.3245908908486292  5.0000000000000000   F   F   F
 12.9767529376574036  5.8272136235940408  5.0000000000000000   F   F   F
 10.0930300626224252  5.8272136235940408  5.0000000000000000   F   F   F
  7.2093071875874459  5.8272136235940408  5.0000000000000000   F   F   F
  7.2035077873275739 10.9010761904514411 12.1294370678013053   T   T   T
  4.3255843125524676  5.8272136235940408  5.0000000000000000   F   F   F
 14.4186143751748919  3.3298363563394515  5.0000000000000000   F   F   F
 10.0930300626224234 10.8219681581032177  5.0000000000000000   F   F   F
  7.2093071875874459 10.8219681581032177  5.0000000000000000   F   F   F
 20.1860601252448504  8.3245908908486292  5.0000000000000000   F   F   F
 11.5348915001399135  8.3245908908486292  5.0000000000000000   F   F   F
  8.6511686251049351  8.3245908908486292  5.0000000000000000   F   F   F
  5.7674457500699567  8.3245908908486292  5.0000000000000000   F   F   F
 18.7441986877273585  5.8272136235940408  5.0000000000000000   F   F   F
  4.3255843125524676  0.8324590890848629  5.0000000000000000   F   F   F
  1.4418614375174892  0.8324590890848629  5.0000000000000000   F   F   F
  8.6511686251049351  6.6596727126789030  7.3545498678091317   F   F   F
  5.7674457500699567  6.6596727126789030  7.3545498678091317   F   F   F
  8.7828773409937231  0.0485731526631912  9.7038784789481181   T   T   T
 18.8771513188934676 12.4367506525574107 16.8465839530578023   T   T   T
 17.3023372502098702  6.6596727126789030  7.3545498678091317   F   F   F
  0.0630497854577707  0.0185028995907323  9.6713560929538041   T   T   T
 21.6279215627623387 14.1518045144426701  7.3545498678091317   F   F   F
 18.7441986877273585 14.1518045144426701  7.3545498678091317   F   F   F
 15.8604758126923819 14.1518045144426701  7.3545498678091317   F   F   F
 12.9767529376574036 14.1518045144426701  7.3545498678091317   F   F   F
 10.0930300626224252 14.1518045144426701  7.3545498678091317   F   F   F
 14.4186143751748919 11.6544272471880817  7.3545498678091317   F   F   F
 11.5348915001399135 11.6544272471880817  7.3545498678091317   F   F   F
  8.6511686251049351 11.6544272471880817  7.3545498678091317   F   F   F
  5.7674457500699567 11.6544272471880817  7.3545498678091317   F   F   F
 18.7441986877273585  9.1570499799334915  7.3545498678091317   F   F   F
 15.8604758126923802  9.1570499799334915  7.3545498678091317   F   F   F
 12.9767529376574018  9.1570499799334915  7.3545498678091317   F   F   F
 10.0930300626224234  9.1570499799334915  7.3545498678091317   F   F   F
  7.2093071875874459  9.1570499799334915  7.3545498678091317   F   F   F
  4.3255843125524676  9.1570499799334915  7.3545498678091317   F   F   F
  2.8837228750349784  1.6649181781697258  7.3545498678091317   F   F   F
 -0.0000000000000001  1.6649181781697258  7.3545498678091317   F   F   F
 23.0697830002798270 13.3193454253578061  5.0000000000000000   F   F   F
 20.1860601252448468 13.3193454253578061  5.0000000000000000   F   F   F
 17.3023372502098702 13.3193454253578061  5.0000000000000000   F   F   F
 14.4186143751748919  6.6596727126789030  7.3545498678091317   F   F   F
  5.7854453725073336  0.0903754405321558  9.6731616437935504   T   T   T
 11.5348915001399135  6.6596727126789030  7.3545498678091317   F   F   F
 21.6586471194567949 12.6006268345717434  9.6636970788648267   T   T   T
  8.7034657970385503  5.1854812653741229  9.5903433682918600   T   T   T
 11.4359645837138881  5.1207280722055355  9.6948828124325743   T   T   T
  7.1436653450143224  9.2312674448465692 14.2947805104774073   T   T   T
  4.3115178151459119  9.1656404867421735 14.3869272067908245   T   T   T
 17.4981359485935464  6.6475069464381749 14.3946308027802701   T   T   T
 11.6358873106163987  6.4644430977025209 14.5205047742616831   T   T   T
  8.7059992855857047  6.4910277258535638 14.3680218878990402   T   T   T
  5.6213223677623523  6.6051130259375368 14.6046234891830853   T   T   T
  2.8889407167096333  6.7150131436116718 14.4944604281682743   T   T   T
 15.8840394818568011  4.3606487480922063 14.5260764747932232   T   T   T
 13.0385220537887996  4.2002182202010934 14.3808266961837035   T   T   T
  9.9674050649301833  4.0785082791473899 14.3594250304587874   T   T   T
  7.1846855533210681  4.1451256844250119 14.2015318551442444   T   T   T
  4.4179655144787358  4.1287281916028649 14.1713247613661029   T   T   T
  1.5153799792942717  4.2959928455853245 14.3896197546791722   T   T   T
 14.3437746898052261  1.6838437021675554 14.5844087542648584   T   T   T
 11.5521685436561850  1.7274563319983565 14.5764902202850859   T   T   T
  8.5739664620480198  1.7662121241037150 14.6142611300763328   T   T   T
  5.6696765498987070  1.7223161904762871 14.5362759068396485   T   T   T
  2.8555080011470064  1.6781002597589030 14.3887614250729445   T   T   T
 -0.0694468393913877  1.7571838754166160 14.5244103227482952   T   T   T
 23.1251206060243391 13.3834245145479080 12.0647551485831475   T   T   T
 20.3362703363319959 13.4239042735073077 12.1721171370865466   T   T   T
 17.3064220594894884 13.3027263609009729 11.9932123291829527   T   T   T
 13.0108376754538657  9.1718475633719301 14.3280584741117867   T   T   T
 14.5104814634611543 13.3233079241588932 11.9196730368987076   T   T   T
 15.8487266287219555  9.3271010134603110 14.4894912229014210   T   T   T
  5.6866546888552794 11.7595339013378641 14.6751983313453938   T   T   T
  1.4418614375174890  4.1622954454243146  7.3545498678091317   F   F   F
 14.4186143751748919  1.6649181781697258  7.3545498678091317   F   F   F
 11.5348915001399135  1.6649181781697258  7.3545498678091317   F   F   F
  8.6511686251049351  1.6649181781697258  7.3545498678091317   F   F   F
  5.7674457500699567  1.6649181781697258  7.3545498678091317   F   F   F
 11.5348915001399135  3.3298363563394515  5.0000000000000000   F   F   F
  8.6511686251049351  3.3298363563394515  5.0000000000000000   F   F   F
  5.7674457500699567  3.3298363563394515  5.0000000000000000   F   F   F
  2.8837228750349784  3.3298363563394515  5.0000000000000000   F   F   F
 15.8604758126923802  0.8324590890848629  5.0000000000000000   F   F   F
 12.9767529376574018  0.8324590890848629  5.0000000000000000   F   F   F
 10.0930300626224234  0.8324590890848629  5.0000000000000000   F   F   F
  7.2093071875874459  0.8324590890848629  5.0000000000000000   F   F   F
 14.4186143751748919 13.3193454253578061  5.0000000000000000   F   F   F
 11.5348915001399135 13.3193454253578061  5.0000000000000000   F   F   F
  8.6511686251049351 13.3193454253578061  5.0000000000000000   F   F   F
 21.6279215627623387 10.8219681581032177  5.0000000000000000   F   F   F
 18.7441986877273585 10.8219681581032177  5.0000000000000000   F   F   F
 15.8604758126923802 10.8219681581032177  5.0000000000000000   F   F   F
 12.9767529376574018 10.8219681581032177  5.0000000000000000   F   F   F
 14.4863550322620398 11.5267416509981491 14.4560587958615336   T   T   T
 11.4305769148668013 11.5480135463858922 14.4555839625423239   T   T   T
  8.7695008390137108 11.6549201358358587 14.4749190781451258   T   T   T
 18.7281947023111606  9.3015817942458607 14.4971773678330500   T   T   T
 14.4394654175258754  6.6906060093748181 14.3003773046839022   T   T   T
 10.1447276669756654  9.0730571625781167 14.3939218670448081   T   T   T
  2.8322016017702012 -0.1185742986418367 17.0304084642243296   T   T   T
  8.7941717489344562 13.3278008616998260 12.1092118117845189   T   T   T
  2.9648644667343094  4.8010976371968814 16.9182390613846643   T   T   T
 15.8679749334720164  2.5874891825491790 16.9048423784282100   T   T   T
 12.9393966571256023  2.4935759656772332 16.8331903308901971   T   T   T
 10.0101602841495456  2.3757842523428185 16.8673385151522197   T   T   T
  7.1384067772991848  2.6039669792063447 16.8535035363704289   T   T   T
  4.1971054678961490  2.4020572628999837 16.7371955413974121   T   T   T
  1.4057100966672011  2.2339532189964189 16.7897118978406361   T   T   T
 14.3736138945566232  0.1097605046207379 16.8357016354739102   T   T   T
 11.5121653090271536 -0.1405899524086944 16.8385383657109244   T   T   T
  8.6141148230353810 -0.0552967832946940 16.8761140694541183   T   T   T
  5.6004780103672394 -0.0798280161401334 16.7422616697903877   T   T   T
 18.7192614189200306  7.2808530251092671 16.9496874427523814   T   T   T
  5.6743176802339930  3.3827967319972481 11.8668522522796298   T   T   T
  2.8482221243149617  3.3888769935184482 12.0815967792452419   T   T   T
 15.7420896783986333  0.7799370470180221 12.0127087311573497   T   T   T
 12.9419134343993214  0.9445877882939832 12.2336977456507512   T   T   T
 10.1091848380272840  0.9350128513725238 12.0915438173146423   T   T   T
  7.2069243190976788  0.8780471331894789 12.0890516970766200   T   T   T
  4.4261236357348661  0.9269677700140121 12.0325652511787720   T   T   T
  1.3736720636848807  0.7985024784286047 12.2054827155524137   T   T   T
 14.2447960247611682  5.1465883013614615  9.7747819140576055   T   T   T
 11.4659033417317797 13.4471201508982627 12.0104279872881001   T   T   T
 17.2538406696753768  3.2463294231722530 12.1140839752068086   T   T   T
 21.7401530562365615 10.9678867345740372 11.8890080702003527   T   T   T
 14.7073529380617121  3.3238159927297755 12.1451033789005400   T   T   T
  4.4283431212836240  5.8494755817343549 11.9718664458230677   T   T   T
  0.0584648867619891  0.0078380769823452 16.8899954154732370   T   T   T
 18.5784941377016217 14.2399903597593198 14.4230051142428852   T   T   T
 15.6948191552110110 14.2062508541290367 14.6084886561346590   T   T   T
 13.0391949241509302 14.0629754029276359 14.4952115488836188   T   T   T
 10.0881070492575997 14.3754820770511618 14.5385768570375120   T   T   T
  7.1154844679494174 14.2945494574303567 14.5080461351866727   T   T   T
 20.0739182656297999 11.7119919813619120 14.4904368668650907   T   T   T
 17.2940586734538364 11.7459621735037736 14.3294951714861192   T   T   T
 18.8651292270846227 10.7667232162060529 11.9455235540353044   T   T   T
 15.8365814276734014 10.7778174520632675 12.1085304974893901   T   T   T
 12.8198411476177938 10.8448648285430362 12.1857363141927664   T   T   T
 15.8604758126923819  5.8272136235940408  5.0000000000000000   F   F   F
 17.3023372502098702  3.3298363563394515  5.0000000000000000   F   F   F
 10.0898815757828295 10.9020372690975833 12.0014605644222385   T   T   T
 17.2380823851753817  8.3060300897991635 12.2170236489273218   T   T   T
 14.5373245182595134  8.3971564541656587 12.1086188950796583   T   T   T
 11.6612235124290606  8.3037130706521900 12.0290537339661370   T   T   T
  8.5471592537131631  8.3890740023944339 12.0929503366691904   T   T   T
  5.6649145788597446  8.3484473054494472 11.9611341744463395   T   T   T
 18.6943091077520016  5.9044146313536681 11.9293134126180860   T   T   T
 15.9358330597431515  5.7934200869429340 12.0141291395163616   T   T   T
 13.0077594467955091  5.7933129444658809 12.1089710535762443   T   T   T
 10.1442596238707647  5.9702578321886799 12.0659624966795000   T   T   T
  7.1713818538749505  6.0163753354839873 12.0885986035424242   T   T   T
 21.4200682768092037 14.0945445632637778 14.5704904806032012   T   T   T
 20.2812580466398344  8.3257474175393043 12.1350453890911307   T   T   T
 17.3023372502098702  8.3245908908486292  5.0000000000000000   F   F   F
Cartesian
  0.0000000000000000  0.0000000000000000  0.0000000000000000
 -0.0006798423526135  0.0004684393139930  0.0009420307821600
  0.0000000000000000  0.0000000000000000  0.0000000000000000
  0.0000000000000000  0.0000000000000000  0.0000000000000000
  0.0001501793136135  0.0006390839521653 -0.0023797878504740
 -0.0024029713950414 -0.0018806454319697  0.0017260891557059
  0.0015584366511406 -0.0010092880718027  0.0004077926248400
 -0.0030032352401785  0.0027189521411145 -0.0007772486119512
  0.0009395771008852  0.0007245657166781  0.0010967127866573
 -0.0009703774102243 -0.0025995370381464  0.0002808126640732
 -0.0017285397444693  0.0006667557143496  0.0000819567299468
 -0.0005328411580108  0.0003648404586150 -0.0020260507134587
 -0.0003870187428253 -0.0003676210566417  0.0007229364772868
  0.0000654899343389  0.0018403942825394  0.0001544367164172
  0.0018760395661632 -0.0008589055713953  0.0003240778477886
  0.0008555836919715  0.0012235311492667 -0.0010636814504040
  0.0016845829321922  0.0018085171272874 -0.0012127652870542
 -0.0005377042027600 -0.0017494154883383  0.0007963680701247
  0.0000871554111822  0.0024365757238945  0.0022452286200474
 -0.0013382748188593 -0.0003693698048461  0.0029501704419664
  0.0048561196117946  0.0014201708354178  0.0003992562223634
 -0.0016780037558979 -0.0006624661753785  0.0013476783978389
 -0.0007790915814187 -0.0032722936194621 -0.0012836482412037
  0.0001185947682725 -0.0016872752967385  0.0034032214937719
  0.0031499283514278 -0.0031034882536431  0.0009355998825015
 -0.0000020499058338  0.0007504939020221 -0.0006991904713945
 -0.0029688615106747  0.0015195158872069  0.0016889422870542
 -0.0020231980632475 -0.0039174692326487 -0.0016620789881075
  0.0010098823606912  0.0015260616515667  0.0014777795010251
 -0.0029658232843335  0.0000980745812545 -0.0008503551120495
 -0.0019658532797025  0.0023482076742421 -0.0017467234416106
 -0.0008531193287681  0.0005986233693607  0.0038231948772237
  0.0011606257275493 -0.0006928498817660 -0.0028681163598190
 -0.0007020933123446  0.0003097186451926  0.0037287625560449
 -0.0010408237133658 -0.0010537457077376  0.0012072247641430
 -0.0014731179735994 -0.0004712976519408 -0.0008091674433789
  0.0019984757823381  0.0012789875509686  0.0007733734050034
 -0.0001858942490891 -0.0007163688564173 -0.0006814530568268
 -0.0006188495069636  0.0040794054478444 -0.0006511348516736
  0.0021014970356361 -0.0043197254450604 -0.0011233433447040
  0.0020040682173136  0.0018881817054342 -0.0013252725692904
  0.0019660506539577 -0.0000405087941155  0.0010415421372032
  0.0002871263539098  0.0000512686896212 -0.0003148031523134
  0.0003273786907437 -0.0011605538704703  0.0011120269923951
  0.0012653609306811 -0.0005029198092717  0.0017484629359098
 -0.0021146837468374 -0.0001093964936904  0.0007702245180296
  0.0028384862030619  0.0018333237949703 -0.0000673040560745
 -0.0006214699353883 -0.0014057122917766 -0.0004933717595026
  0.0027755913206927  0.0036565600814793  0.0011134825554442
  0.0019712275097305 -0.0007365133966063 -0.0009071130580327
 -0.0019472688372001  0.0023010559605425  0.0035117328399671
  0.0006080348646041  0.0027653890124876 -0.0019552994822822
  0.0022831195190240 -0.0032979957457782  0.0010060207843719
  0.0000274682643675 -0.0020726202282422  0.0011678882041854
  0.0005891386179445  0.0029806782949341  0.0005516891676799
  0.0000000000000000  0.0000000000000000  0.0000000000000000
  0.0000000000000000  0.0000000000000000  0.0000000000000000
  0.0000000000000000  0.0000000000000000  0.0000000000000000
  0.0000000000000000  0.0000000000000000  0.0000000000000000
  0.0000000000000000  0.0000000000000000  0.0000000000000000
  0.0000000000000000  0.0000000000000000  0.0000000000000000
  0.0000000000000000  0.0000000000000000  0.0000000000000000
  0.0000000000000000  0.0000000000000000  0.0000000000000000
  0.0000000000000000  0.0000000000000000  0.0000000000000000
  0.0000000000000000  0.0000000000000000  0.0000000000000000
  0.0012161948926655  0.0022392441144389  0.0013602386548794
  0.0000000000000000  0.0000000000000000  0.0000000000000000
  0.0000000000000000  0.0000000000000000  0.0000000000000000
  0.0000000000000000  0.0000000000000000  0.0000000000000000
  0.0000000000000000  0.0000000000000000  0.0000000000000000
  0.0000000000000000  0.0000000000000000  0.0000000000000000
  0.0000000000000000  0.0000000000000000  0.0000000000000000
  0.0000000000000000  0.0000000000000000  0.0000000000000000
  0.0000000000000000  0.0000000000000000  0.0000000000000000
  0.0000000000000000  0.0000000000000000  0.0000000000000000
  0.0000000000000000  0.0000000000000000  0.0000000000000000
  0.0000000000000000  0.0000000000000000  0.0000000000000000
  0.0000000000000000  0.0000000000000000  0.0000000000000000
  0.0000000000000000  0.0000000000000000  0.0000000000000000
 -0.0001425396202330  0.0003182077439399  0.0003064262584352
  0.0006000129089513 -0.0043976228633476 -0.0002945720259051
  0.0000000000000000  0.0000000000000000  0.0000000000000000
 -0.0001050752587848 -0.0004239382978730 -0.0014966936486517
  0.0000000000000000  0.0000000000000000  0.0000000000000000
  0.0000000000000000  0.0000000000000000  0.0000000000000000
  0.0000000000000000  0.0000000000000000  0.0000000000000000
  0.0000000000000000  0.0000000000000000  0.0000000000000000
  0.0000000000000000  0.0000000000000000  0.0000000000000000
  0.0000000000000000  0.0000000000000000  0.0000000000000000
  0.0000000000000000  0.0000000000000000  0.0000000000000000
  0.0000000000000000  0.0000000000000000  0.0000000000000000
  0.0000000000000000  0.0000000000000000  0.0000000000000000
  0.0000000000000000  0.0000000000000000  0.0000000000000000
  0.0000000000000000  0.0000000000000000  0.0000000000000000
  0.0000000000000000  0.0000000000000000  0.0000000000000000
  0.0000000000000000  0.0000000000000000  0.0000000000000000
  0.0000000000000000  0.0000000000000000  0.0000000000000000
  0.0000000000000000  0.0000000000000000  0.0000000000000000
  0.0000000000000000  0.0000000000000000  0.0000000000000000
  0.0000000000000000  0.0000000000000000  0.0000000000000000
  0.0000000000000000  0.0000000000000000  0.0000000000000000
  0.0000000000000000  0.0000000000000000  0.0000000000000000
  0.0000000000000000  0.0000000000000000  0.0000000000000000
  0.0000000000000000  0.0000000000000000  0.0000000000000000
 -0.0016263581823304  0.0003183640128160  0.0011332250626319
  0.0000000000000000  0.0000000000000000  0.0000000000000000
  0.0007093748091246 -0.0000014553611512 -0.0003544416798204
 -0.0003788408755760 -0.0017524059587789 -0.0002094804496530
 -0.0014916032251639  0.0004585874204810  0.0006010475460064
  0.0018412808729714  0.0031879161698657 -0.0022966150660576
  0.0005080703414578 -0.0003595074474427  0.0033342164630779
  0.0012693256901494 -0.0013839302851929 -0.0004488145072308
  0.0011086326055978 -0.0031166082937622  0.0005854901209968
 -0.0005957807081297 -0.0014519108892921  0.0012039822943275
 -0.0014564485234563 -0.0024730898893505  0.0019207852475012
  0.0008181385616626  0.0004977512899307 -0.0007658157081586
  0.0007376600219890  0.0036101165006723  0.0023748925999137
  0.0004712893606111 -0.0008519773307294  0.0009277367066908
 -0.0002379634867519  0.0027138839081016 -0.0013134233930838
 -0.0015412577117172 -0.0048063244749887  0.0032830965502961
 -0.0008843102449019  0.0007951869416907 -0.0012504329203923
  0.0004305403392400 -0.0008835681859094  0.0003138000244780
  0.0019671699488523  0.0025078566476487  0.0001102408169528
 -0.0003280976075354  0.0011312251421919  0.0019238157259132
 -0.0011171716563038 -0.0009739086881469  0.0011000447019065
 -0.0002395802847393 -0.0002603115977994  0.0021591092485416
 -0.0019626422119522  0.0023121353357274 -0.0041280612389065
  0.0019560626422995 -0.0008418617499445  0.0027896043630787
 -0.0037298515687334 -0.0007112409085035  0.0013576591688180
  0.0019142235279459 -0.0030413467100653 -0.0025126783647055
 -0.0025238821606235  0.0008385523769892 -0.0000685161904440
 -0.0007154195991421 -0.0023710275888130  0.0012000557715034
 -0.0010103428519359 -0.0014605315417510 -0.0006531054132995
  0.0032260222032082  0.0023905455389469 -0.0020586823049801
 -0.0012769069496969 -0.0000427934517347  0.0026428462349446
  0.0000000000000000  0.0000000000000000  0.0000000000000000
  0.0000000000000000  0.0000000000000000  0.0000000000000000
  0.0000000000000000  0.0000000000000000  0.0000000000000000
  0.0000000000000000  0.0000000000000000  0.0000000000000000
  0.0000000000000000  0.0000000000000000  0.0000000000000000
  0.0000000000000000  0.0000000000000000  0.0000000000000000
  0.0000000000000000  0.0000000000000000  0.0000000000000000
  0.0000000000000000  0.0000000000000000  0.0000000000000000
  0.0000000000000000  0.0000000000000000  0.0000000000000000
  0.0000000000000000  0.0000000000000000  0.0000000000000000
  0.0000000000000000  0.0000000000000000  0.0000000000000000
  0.0000000000000000  0.0000000000000000  0.0000000000000000
  0.0000000000000000  0.0000000000000000  0.0000000000000000
  0.0000000000000000  0.0000000000000000  0.0000000000000000
  0.0000000000000000  0.0000000000000000  0.0000000000000000
  0.0000000000000000  0.0000000000000000  0.0000000000000000
  0.0000000000000000  0.0000000000000000  0.0000000000000000
  0.0000000000000000  0.0000000000000000  0.0000000000000000
  0.0000000000000000  0.0000000000000000  0.0000000000000000
  0.0000000000000000  0.0000000000000000  0.0000000000000000
  0.0004252437857145  0.0005594020006070  0.0015786528248046
 -0.0010603075747412  0.0014236994563969 -0.0005819241452055
 -0.0001210594196167 -0.0009819978552539  0.0015242525089080
 -0.0001221596162132  0.0018631229970155  0.0012740630038466
 -0.0002073502942244  0.0001978621217067 -0.0021604526082451
  0.0003168811377389  0.0000220939920640  0.0022123183529064
  0.0014897060224912  0.0002442039387656  0.0032662871947410
  0.0010310941772947  0.0021216408533735 -0.0002831172384737
 -0.0003562120037797  0.0000376046913833 -0.0000808230228367
  0.0011630200469755  0.0033475075684777  0.0011294375106509
  0.0011718332547465 -0.0016259602997932  0.0042314139550297
  0.0000733365481740  0.0014689917580894  0.0018978414236058
  0.0001471035689233  0.0030889522970921  0.0033604984036876
  0.0005855433215735  0.0014505647606567 -0.0020933618399922
  0.0019739432576389  0.0015603508058367 -0.0007326690613168
 -0.0012264158219355  0.0001410897138501 -0.0006012521176240
  0.0001110153194448 -0.0020191145277656 -0.0029667400011185
 -0.0046861214308751  0.0014949798688891  0.0011639863266859
  0.0017231651364163 -0.0028691981424070  0.0028134520417422
  0.0042680305840897 -0.0006341060637762  0.0019678471365532
  0.0028656754280860  0.0007858575785583 -0.0010372138036526
 -0.0020843341000935 -0.0017189045043585 -0.0020631036724518
 -0.0011152161741053 -0.0010345299701408 -0.0013274126297800
  0.0002719093760515  0.0034749336053088  0.0024588663838450
  0.0006255331737152  0.0014895091415897  0.0012497765796262
 -0.0024380614784861  0.0007075507327676  0.0001289126381790
  0.0026672436246406  0.0030606379362048 -0.0032137819422049
 -0.0014965662297592  0.0013401249753763 -0.0018985703040111
  0.0000606416346045  0.0052958868245156  0.0014777759032197
 -0.0003625175059740 -0.0004895701348212  0.0016832038971513
 -0.0023979583691722 -0.0001132227078473 -0.0027660628112933
 -0.0017703194669929  0.0002793276728603  0.0001840964123174
 -0.0008928346990406 -0.0019443922022475 -0.0001562020712647
 -0.0002317844053690  0.0011710889275467 -0.0012527050320546
 -0.0008555588514421 -0.0010887973824718  0.0021732966403819
 -0.0035552016052028  0.0009347111287646 -0.0017770023916611
 -0.0015851603346574 -0.0010131474473937 -0.0002306310899820
  0.0014691081847910 -0.0005973015650754 -0.0000777912445166
 -0.0014552242384933 -0.0014427500886984  0.0014606358154940
  0.0000336901810165 -0.0000740502962521  0.0015457931287820
 -0.0007249463704694  0.0016241288318233 -0.0001261524358478
  0.0000290659097485 -0.0017056975776080  0.0020787231395038
  0.0007521045194426  0.0004600327740957  0.0001705092805702
 -0.0004638320866208 -0.0012749177214096 -0.0019917459276022
  0.0008962288372005  0.0008618956322853  0.0023680434122449
  0.0000000000000000  0.0000000000000000  0.0000000000000000
  0.0000000000000000  0.0000000000000000  0.0000000000000000
 -0.0002082367633230  0.0011603409581214  0.0013518557586293
 -0.0001206590449212  0.0004312658439747  0.0024851856905834
  0.0003303052377777  0.0004395987173317  0.0005459303295795
  0.0035430120947609 -0.0010586854991462  0.0016417372911314
  0.0023927668350609  0.0002719838838409 -0.0016153884660117
 -0.0031946478255058  0.0011564292306341 -0.0005430073452333
 -0.0002433946790566  0.0002655380948347 -0.0026299869969742
 -0.0014679095347096  0.0012564623488867 -0.0011002144520619
 -0.0001566914162773 -0.0000235080332872  0.0016683479833931
  0.0005881470860963 -0.0053829056790215  0.0004660848416683
  0.0016020266172561  0.0011130058046565  0.0011127387697098
 -0.0010823852149149 -0.0008346603517656  0.0039665967481552
  0.0001813292741352 -0.0005090002655884 -0.0043530085297753
  0.0000000000000000  0.0000000000000000  0.0000000000000000
