Au O  C  O  H 
 1.0000000000000000
    17.3099740034466869    0.0000000000000000    0.0000000000000000
     8.6549870017233435   14.9908772258330494    0.0000000000000000
     0.0000000000000000    0.0000000000000000   31.7779454914683654
 Au  O   C   O   H  
 216   1   1   1   2
Cartesian
  1.4424978336205572  0.8328265125462805 10.0000000000000000
  4.3274935008616717  0.8328265125462805 10.0000000000000000
  7.2124891681027865  0.8328265125462805 10.0000000000000000
 10.0974848353439004  0.8328265125462805 10.0000000000000000
 12.9824805025850125  0.8328265125462805 10.0000000000000000
 15.8674761698261282  0.8328265125462805 10.0000000000000000
  2.8849956672411143  3.3313060501851219 10.0000000000000000
  5.7699913344822287  3.3313060501851219 10.0000000000000000
  8.6549870017233435  3.3313060501851219 10.0000000000000000
 11.5399826689644573  3.3313060501851219 10.0000000000000000
 14.4249783362055695  3.3313060501851219 10.0000000000000000
 17.3099740034466869  3.3313060501851219 10.0000000000000000
  4.3274935008616717  5.8297855878239639 10.0000000000000000
  7.2124891681027856  5.8297855878239639 10.0000000000000000
 10.0974848353439004  5.8297855878239639 10.0000000000000000
 12.9824805025850161  5.8297855878239639 10.0000000000000000
 15.8674761698261282  5.8297855878239639 10.0000000000000000
 18.7524718370672439  5.8297855878239639 10.0000000000000000
  5.7699913344822287  8.3282651254628064 10.0000000000000000
  8.6549870017233435  8.3282651254628064 10.0000000000000000
 11.5399826689644573  8.3282651254628064 10.0000000000000000
 14.4249783362055730  8.3282651254628064 10.0000000000000000
 17.3099740034466834  8.3282651254628064 10.0000000000000000
 20.1949696706878008  8.3282651254628064 10.0000000000000000
  7.2124891681027856 10.8267446631016462 10.0000000000000000
 10.0974848353439004 10.8267446631016462 10.0000000000000000
 12.9824805025850143 10.8267446631016462 10.0000000000000000
 15.8674761698261300 10.8267446631016462 10.0000000000000000
 18.7524718370672403 10.8267446631016462 10.0000000000000000
 21.6374675043083577 10.8267446631016462 10.0000000000000000
  8.6549870017233435 13.3252242007404877 10.0000000000000000
 11.5399826689644573 13.3252242007404877 10.0000000000000000
 14.4249783362055712 13.3252242007404877 10.0000000000000000
 17.3099740034466869 13.3252242007404877 10.0000000000000000
 20.1949696706877972 13.3252242007404877 10.0000000000000000
 23.0799653379289147 13.3252242007404877 10.0000000000000000
 -0.0000000000000001  1.6656530250925610 12.3555890982936738
  2.8849956672411143  1.6656530250925610 12.3555890982936738
  5.7699913344822287  1.6656530250925610 12.3555890982936738
  8.6549870017233435  1.6656530250925610 12.3555890982936738
 11.5399826689644573  1.6656530250925610 12.3555890982936738
 14.4249783362055730  1.6656530250925610 12.3555890982936738
  1.4424978336205569  4.1641325627314023 12.3555890982936738
  4.3274935008616717  4.1641325627314023 12.3555890982936738
  7.2124891681027865  4.1641325627314023 12.3555890982936738
 10.0974848353439004  4.1641325627314023 12.3555890982936738
 12.9824805025850143  4.1641325627314023 12.3555890982936738
 15.8674761698261300  4.1641325627314023 12.3555890982936738
  2.8849956672411143  6.6626121003702439 12.3555890982936738
  5.7699913344822287  6.6626121003702439 12.3555890982936738
  8.6549870017233435  6.6626121003702439 12.3555890982936738
 11.5399826689644573  6.6626121003702439 12.3555890982936738
 14.4249783362055712  6.6626121003702439 12.3555890982936738
 17.3099740034466869  6.6626121003702439 12.3555890982936738
  4.3274935008616717  9.1610916380090845 12.3555890982936738
  7.2124891681027856  9.1610916380090845 12.3555890982936738
 10.0974848353439004  9.1610916380090845 12.3555890982936738
 12.9824805025850143  9.1610916380090845 12.3555890982936738
 15.8674761698261282  9.1610916380090845 12.3555890982936738
 18.7524718370672439  9.1610916380090845 12.3555890982936738
  5.7699913344822287 11.6595711756479279 12.3555890982936738
  8.6549870017233435 11.6595711756479279 12.3555890982936738
 11.5399826689644573 11.6595711756479279 12.3555890982936738
 14.4249783362055712 11.6595711756479279 12.3555890982936738
 17.3099740034466869 11.6595711756479279 12.3555890982936738
 20.1949696706878008 11.6595711756479279 12.3555890982936738
  7.2124891681027865 14.1580507132867695 12.3555890982936738
 10.0974848353439004 14.1580507132867695 12.3555890982936738
 12.9824805025850161 14.1580507132867695 12.3555890982936738
 15.8674761698261300 14.1580507132867695 12.3555890982936738
 18.7524718370672439 14.1580507132867695 12.3555890982936738
 21.6374675043083577 14.1580507132867695 12.3555890982936738
  0.0000000000000000  0.0000000000000000 14.7111781965873458
  2.8849956672411143  0.0000000000000000 14.7111781965873458
  5.7699913344822287  0.0000000000000000 14.7111781965873458
  8.6549870017233435  0.0000000000000000 14.7111781965873458
 11.5399826689644573  0.0000000000000000 14.7111781965873458
 14.4249783362055712  0.0000000000000000 14.7111781965873458
  1.4424978336205572  2.4984795376388416 14.7111781965873458
  4.3274935008616717  2.4984795376388416 14.7111781965873458
  7.2124891681027856  2.4984795376388416 14.7111781965873458
 10.0974848353439004  2.4984795376388416 14.7111781965873458
 12.9824805025850143  2.4984795376388416 14.7111781965873458
 15.8674761698261282  2.4984795376388416 14.7111781965873458
  2.8849956672411143  4.9969590752776831 14.7111781965873458
  5.7699913344822287  4.9969590752776831 14.7111781965873458
  8.6549870017233435  4.9969590752776831 14.7111781965873458
 11.5399826689644573  4.9969590752776831 14.7111781965873458
 14.4249783362055712  4.9969590752776831 14.7111781965873458
 17.3099740034466869  4.9969590752776831 14.7111781965873458
  4.3274935008616717  7.4954386129165247 14.7111781965873458
  7.2124891681027856  7.4954386129165247 14.7111781965873458
 10.0974848353439004  7.4954386129165247 14.7111781965873458
 12.9824805025850143  7.4954386129165247 14.7111781965873458
 15.8674761698261282  7.4954386129165247 14.7111781965873458
 18.7524718370672439  7.4954386129165247 14.7111781965873458
  5.7699913344822287  9.9939181505553663 14.7111781965873458
  8.6549870017233435  9.9939181505553663 14.7111781965873458
 11.5399826689644573  9.9939181505553663 14.7111781965873458
 14.4249783362055730  9.9939181505553663 14.7111781965873458
 17.3099740034466869  9.9939181505553663 14.7111781965873458
 20.1949696706878008  9.9939181505553663 14.7111781965873458
  7.2124891681027856 12.4923976881942078 14.7111781965873458
 10.0974848353439004 12.4923976881942078 14.7111781965873458
 12.9824805025850143 12.4923976881942078 14.7111781965873458
 15.8674761698261300 12.4923976881942078 14.7111781965873458
 18.7524718370672439 12.4923976881942078 14.7111781965873458
 21.6374675043083577 12.4923976881942078 14.7111781965873458
  1.4424978336205572  0.8328265125462805 17.0667672948810178
  4.3274935008616717  0.8328265125462805 17.0667672948810178
  7.2124891681027865  0.8328265125462805 17.0667672948810178
 10.0974848353439004  0.8328265125462805 17.0667672948810178
 12.9824805025850125  0.8328265125462805 17.0667672948810178
 15.8674761698261282  0.8328265125462805 17.0667672948810178
  2.8849956672411143  3.3313060501851219 17.0667672948810178
  5.7699913344822287  3.3313060501851219 17.0667672948810178
  8.6549870017233435  3.3313060501851219 17.0667672948810178
 11.5399826689644573  3.3313060501851219 17.0667672948810178
 14.4249783362055695  3.3313060501851219 17.0667672948810178
 17.3099740034466869  3.3313060501851219 17.0667672948810178
  4.3274935008616717  5.8297855878239639 17.0667672948810178
  7.2124891681027856  5.8297855878239639 17.0667672948810178
 10.0974848353439004  5.8297855878239639 17.0667672948810178
 12.9824805025850161  5.8297855878239639 17.0667672948810178
 15.8674761698261282  5.8297855878239639 17.0667672948810178
 18.7524718370672439  5.8297855878239639 17.0667672948810178
  5.7699913344822287  8.3282651254628064 17.0667672948810178
  8.6549870017233435  8.3282651254628064 17.0667672948810178
 11.5399826689644573  8.3282651254628064 17.0667672948810178
 14.4249783362055730  8.3282651254628064 17.0667672948810178
 17.3099740034466834  8.3282651254628064 17.0667672948810178
 20.1949696706878008  8.3282651254628064 17.0667672948810178
  7.2124891681027856 10.8267446631016462 17.0667672948810178
 10.0974848353439004 10.8267446631016462 17.0667672948810178
 12.9824805025850143 10.8267446631016462 17.0667672948810178
 15.8674761698261300 10.8267446631016462 17.0667672948810178
 18.7524718370672403 10.8267446631016462 17.0667672948810178
 21.6374675043083577 10.8267446631016462 17.0667672948810178
  8.6549870017233435 13.3252242007404877 17.0667672948810178
 11.5399826689644573 13.3252242007404877 17.0667672948810178
 14.4249783362055712 13.3252242007404877 17.0667672948810178
 17.3099740034466869 13.3252242007404877 17.0667672948810178
 20.1949696706877972 13.3252242007404877 17.0667672948810178
 23.0799653379289147 13.3252242007404877 17.0667672948810178
 -0.0000000000000001  1.6656530250925610 19.4223563931746916
  2.8849956672411143  1.6656530250925610 19.4223563931746916
  5.7699913344822287  1.6656530250925610 19.4223563931746916
  8.6549870017233435  1.6656530250925610 19.4223563931746916
 11.5399826689644573  1.6656530250925610 19.4223563931746916
 14.4249783362055730  1.6656530250925610 19.4223563931746916
  1.4424978336205569  4.1641325627314023 19.4223563931746916
  4.3274935008616717  4.1641325627314023 19.4223563931746916
  7.2124891681027865  4.1641325627314023 19.4223563931746916
 10.0974848353439004  4.1641325627314023 19.4223563931746916
 12.9824805025850143  4.1641325627314023 19.4223563931746916
 15.8674761698261300  4.1641325627314023 19.4223563931746916
  2.8849956672411143  6.6626121003702439 19.4223563931746916
  5.7699913344822287  6.6626121003702439 19.4223563931746916
  8.6549870017233435  6.6626121003702439 19.4223563931746916
 11.5399826689644573  6.6626121003702439 19.4223563931746916
 14.4249783362055712  6.6626121003702439 19.4223563931746916
 17.3099740034466869  6.6626121003702439 19.4223563931746916
  4.3274935008616717  9.1610916380090845 19.4223563931746916
  7.2124891681027856  9.1610916380090845 19.4223563931746916
 10.0974848353439004  9.1610916380090845 19.4223563931746916
 12.9824805025850143  9.1610916380090845 19.4223563931746916
 15.8674761698261282  9.1610916380090845 19.4223563931746916
 18.7524718370672439  9.1610916380090845 19.4223563931746916
  5.7699913344822287 11.6595711756479279 19.4223563931746916
  8.6549870017233435 11.6595711756479279 19.4223563931746916
 11.5399826689644573 11.6595711756479279 19.4223563931746916
 14.4249783362055712 11.6595711756479279 19.4223563931746916
 17.3099740034466869 11.6595711756479279 19.4223563931746916
 20.1949696706878008 11.6595711756479279 19.4223563931746916
  7.2124891681027865 14.1580507132867695 19.4223563931746916
 10.0974848353439004 14.1580507132867695 19.4223563931746916
 12.9824805025850161 14.1580507132867695 19.4223563931746916
 15.8674761698261300 14.1580507132867695 19.4223563931746916
 18.7524718370672439 14.1580507132867695 19.4223563931746916
 21.6374675043083577 14.1580507132867695 19.4223563931746916
  0.0000000000000000  0.0000000000000000 21.7779454914683654
  2.8849956672411143  0.0000000000000000 21.7779454914683654
  5.7699913344822287  0.0000000000000000 21.7779454914683654
  8.6549870017233435  0.0000000000000000 21.7779454914683654
 11.5399826689644573  0.0000000000000000 21.7779454914683654
 14.4249783362055712  0.0000000000000000 21.7779454914683654
  1.4424978336205572  2.4984795376388416 21.7779454914683654
  4.3274935008616717  2.4984795376388416 21.7779454914683654
  7.2124891681027856  2.4984795376388416 21.7779454914683654
 10.0974848353439004  2.4984795376388416 21.7779454914683654
 12.9824805025850143  2.4984795376388416 21.7779454914683654
 15.8674761698261282  2.4984795376388416 21.7779454914683654
  2.8849956672411143  4.9969590752776831 21.7779454914683654
  5.7699913344822287  4.9969590752776831 21.7779454914683654
  8.6549870017233435  4.9969590752776831 21.7779454914683654
 11.5399826689644573  4.9969590752776831 21.7779454914683654
 14.4249783362055712  4.9969590752776831 21.7779454914683654
 17.3099740034466869  4.9969590752776831 21.7779454914683654
  4.3274935008616717  7.4954386129165247 21.7779454914683654
  7.2124891681027856  7.4954386129165247 21.7779454914683654
 10.0974848353439004  7.4954386129165247 21.7779454914683654
 12.9824805025850143  7.4954386129165247 21.7779454914683654
 15.8674761698261282  7.4954386129165247 21.7779454914683654
 18.7524718370672439  7.4954386129165247 21.7779454914683654
  5.7699913344822287  9.9939181505553663 21.7779454914683654
  8.6549870017233435  9.9939181505553663 21.7779454914683654
 11.5399826689644573  9.9939181505553663 21.7779454914683654
 14.4249783362055730  9.9939181505553663 21.7779454914683654
 17.3099740034466869  9.9939181505553663 21.7779454914683654
 20.1949696706878008  9.9939181505553663 21.7779454914683654
  7.2124891681027856 12.4923976881942078 21.7779454914683654
 10.0974848353439004 12.4923976881942078 21.7779454914683654
 12.9824805025850143 12.4923976881942078 21.7779454914683654
 15.8674761698261300 12.4923976881942078 21.7779454914683654
 18.7524718370672439 12.4923976881942078 21.7779454914683654
 21.6374675043083577 12.4923976881942078 21.7779454914683654
  8.6549870017233435  4.9969590752776831 24.7779454914683654
  8.6549870017233435  4.9969590752776831 23.6276054914683655
 12.9824805025850161  7.4954386129165247 24.7779454914683654
 12.9824805025850161  8.2586776129165251 24.1816364914683675
 12.9824805025850161  6.7321996129165242 24.1816364914683675
