Au
 1.0000000000000000
    17.3023372502098702    0.0000000000000000    0.0000000000000000
     0.0000000000000000   14.9842636035275341    0.0000000000000000
     0.0000000000000000    0.0000000000000000   40.0000000000000000
 Au 
 216
Selective dynamics
Cartesian
  4.3255843125524676  4.1622954454243146  7.3545498678091317   F   F   F
 11.5348915001399135  1.6649181781697258  7.3545498678091317   F   F   F
  8.6511686251049351  1.6649181781697258  7.3545498678091317   F   F   F
  5.7674457500699567  1.6649181781697258  7.3545498678091317   F   F   F
 11.5348915001399135  3.3298363563394515  5.0000000000000000   F   F   F
  8.6511686251049351  3.3298363563394515  5.0000000000000000   F   F   F
  5.7674457500699567  3.3298363563394515  5.0000000000000000   F   F   F
  2.8837228750349784  3.3298363563394515  5.0000000000000000   F   F   F
 15.8604758126923802  0.8324590890848629  5.0000000000000000   F   F   F
 12.9767529376574018  0.8324590890848629  5.0000000000000000   F   F   F
 10.0930300626224234  0.8324590890848629  5.0000000000000000   F   F   F
  7.2093071875874459  0.8324590890848629  5.0000000000000000   F   F   F
 14.4186143751748919 13.3193454253578061  5.0000000000000000   F   F   F
 11.5348915001399135 13.3193454253578061  5.0000000000000000   F   F   F
  8.6511686251049351 13.3193454253578061  5.0000000000000000   F   F   F
 21.6279215627623387 10.8219681581032177  5.0000000000000000   F   F   F
 18.7441986877273585 10.8219681581032177  5.0000000000000000   F   F   F
 15.8604758126923802 10.8219681581032177  5.0000000000000000   F   F   F
 12.9767529376574018 10.8219681581032177  5.0000000000000000   F   F   F
 14.4834092223360003 11.8595602572271410 14.3150891384423442   T   T   T
 11.6510377626678689 11.4053578144717331 14.6661926666400557   T   T   T
  8.8225597491529868 11.6281023587956991 14.5488180760158698   T   T   T
 18.5512866343077576  9.1002184463035913 14.4931696711134315   T   T   T
 14.5514534880826876  6.9299886763611971 14.4312580007968769   T   T   T
 14.4186143751748919  1.6649181781697258  7.3545498678091317   F   F   F
  9.9626005054332545  9.0966392513628129 14.6009360030243442   T   T   T
  1.4418614375174890  4.1622954454243146  7.3545498678091317   F   F   F
 15.7396412514667361  9.3771289860825284 14.2885789351239119   T   T   T
  4.2072786092443000  9.1729392827137630 14.3679790344750486   T   T   T
 17.5101375567817179  6.5111765890616828 14.6219028463387968   T   T   T
 11.7482261409479651  6.7336253399249131 14.3074447789602512   T   T   T
  8.7137704487799681  6.7385186814548481 14.5849166266503794   T   T   T
  5.7672691757771553  6.7291236214061403 14.5840737913339602   T   T   T
  2.7750188313853261  6.8976476003545528 14.4086574354250097   T   T   T
 15.8386848877991540  4.3568321649978419 14.6077849499335510   T   T   T
 12.9868582661581904  4.1626829585563927 14.6068848391579742   T   T   T
 10.2241268441695947  4.0962955080705532 14.3758599356011487   T   T   T
  7.2332895778719939  4.4062668047549103 14.4095674541695367   T   T   T
  3.9957725168337639  4.1952123029024113 14.3508957007846547   T   T   T
  1.4492563307874771  4.1338132934686476 14.4748090926291653   T   T   T
 14.4168708980049818  1.7940671719207029 14.5442819749508558   T   T   T
 11.5718706829454394  1.7771168671004671 14.3679674950094238   T   T   T
  8.5140566686808796  1.6797375290172261 14.5857156268704955   T   T   T
  5.8187201797018835  1.6045124395820778 14.4808102886220915   T   T   T
  2.8554522120107020  1.6119739455385247 14.5258753166712360   T   T   T
 -0.1834565575018741  1.5513202620021180 14.5925910752299419   T   T   T
 23.1526722616983172 13.3651354116321492 12.0706504893955220   T   T   T
 20.2984723035181851 13.2582629743503659 11.9336274543087910   T   T   T
 17.1578295761394592 13.2326527607239726 12.2293961845744992   T   T   T
 12.9183618434149192  9.1347283442884120 14.4740822469701396   T   T   T
 14.4802363668923011 13.3911513913248523 12.0987526146018283   T   T   T
  5.7867994678361283 11.7170970362811886 14.3679179135172230   T   T   T
  7.1268222492544249  9.1708957081535836 14.5942255237633489   T   T   T
  2.8097538978920968 -0.3377093375740357 16.6641048079302294   T   T   T
  2.9582757516334857  4.6520120819926420 16.8092811922597107   T   T   T
 15.7194373958055387 14.2506586777590858 14.3381661594571206   T   T   T
 12.7864166312009857 14.1228100378427808 14.5905782557996666   T   T   T
 10.1556896623524953 14.1416172505241189 14.4690866637541937   T   T   T
  7.2414488460522897 14.1444398601183661 14.3719447452714117   T   T   T
 20.2249121855131619 11.4675166213640978 14.4400964164878935   T   T   T
 17.1624330268585261 11.6263336603035832 14.5778612168332682   T   T   T
 18.6378993655946417 11.0606841283511343 12.1560841742697825   T   T   T
 15.9456973913349902 10.7203671066866821 11.9236636306959998   T   T   T
 12.9747391261852556 10.8949745810454832 11.8466007245282103   T   T   T
 15.8604758126923819  5.8272136235940408  5.0000000000000000   F   F   F
 17.3023372502098702  3.3298363563394515  5.0000000000000000   F   F   F
 10.0008347597083969 10.9973527731409000 12.1004978552753908   T   T   T
 17.4412265550070451  8.3728902157536300 12.1546085681713887   T   T   T
 14.4131893109502602  8.4191471840589678 11.9039401908555647   T   T   T
 11.4325705114282830  8.5115578083817383 12.0870860331751562   T   T   T
  8.8154701623128524  8.3875161075138820 12.0164171694452495   T   T   T
  5.9486920587430037  8.1815368828448243 12.2539065036727450   T   T   T
 19.1209948495478912  5.7215815423994076 12.1209021202380320   T   T   T
 15.8587345910164466  5.8153258622457642 12.1409826472831277   T   T   T
 13.1318663477284847  5.9166004164292003 12.0635592011372488   T   T   T
 10.0480198803848868  5.9210147049206894 12.1338586883885853   T   T   T
  7.3338261482824789  5.9339727937198949 11.9987296361726763   T   T   T
 21.7504016406989997 14.2732577820107842 14.4607255595473028   T   T   T
 18.4754822597373085 14.2852954854698222 14.6348711765835340   T   T   T
  8.7035892592867192 13.4001221007153486 12.2984322544195983   T   T   T
 -0.0727258990512737 -0.0174404765245362 16.9653803007752479   T   T   T
 14.2528734557039005  3.4766819419984651 12.2553894995814687   T   T   T
 15.8582067148326811  2.5608467504539503 16.9757459203598380   T   T   T
 12.9380500068244775  2.6849320703077395 16.9456309827491012   T   T   T
 10.1057691338218056  2.6649630675019291 16.5939898433213919   T   T   T
  7.1170974725241756  2.5830850280637230 16.8792510489522449   T   T   T
  4.2852875110665911  2.3488237329694881 16.7461916108114828   T   T   T
  1.2916739217914115  2.4818619340195700 16.7711802866554152   T   T   T
 14.3145187881364890 -0.0232297271904668 16.6822949527022431   T   T   T
 11.5574616697459085  0.1351721486593827 16.6622239466442714   T   T   T
  8.5891807337960095 -0.0098833162693178 16.7228114758597890   T   T   T
  5.6405286915299522  0.0207775569095605 16.8462500059025899   T   T   T
 18.8132209395297600  7.5980204328550514 16.9899110846717960   T   T   T
  5.7072410881791829  3.4474563511471441 12.0751718951505413   T   T   T
  2.8179639921016837  3.1795086197371893 11.9609415976372144   T   T   T
 15.9984006226641515  0.9750996062081234 12.0203100936687761   T   T   T
 13.1276716885882951  0.8306971308373464 11.9892949156968580   T   T   T
 10.2224363698532184  0.9579048903410247 12.1244803468533195   T   T   T
  6.9972578780242332  0.9537086383104325 12.2208791307062015   T   T   T
  4.2971038705250795  0.7352904447967971 12.3312204193187949   T   T   T
  1.4717757415877071  0.8512145485280520 12.0962357802019369   T   T   T
 14.5256316559524077  4.8764939099798825  9.5616473016984536   T   T   T
 11.5128628486783882 13.4892832053204916 12.1229179418754764   T   T   T
 17.2435041386383752  3.3985278075305962 12.0800568912921058   T   T   T
 21.7690073862347369 10.7367838391604895 12.1106095609825140   T   T   T
  4.4017703854847277  5.8791641667057215 12.0012494533704484   T   T   T
 11.3646805119653962  4.9866048583776736  9.6812029975665439   T   T   T
  8.7119905908713147  4.9512430076938294  9.5593168044075583   T   T   T
 21.6389565022398287 12.4459295132561643  9.5927556878923443   T   T   T
 13.0297715742609164 12.7439492039217583  9.8363236807457142   T   T   T
 10.1485975646129329 12.5994409364947071  9.7692962529318237   T   T   T
  7.1561146416248347 12.5878135474094623  9.6129925274066359   T   T   T
 20.2497191042298184  9.9846692035697959  9.6143168205909912   T   T   T
 17.3377770980256898 10.0739205424658778  9.7232884961666723   T   T   T
 14.4960191145628770 10.2173245998129758  9.5901341206853790   T   T   T
 11.6269878560324251 10.0541332942158430  9.7280461117072079   T   T   T
  8.6261312673439079 10.1458758358956889  9.6984708918246554   T   T   T
 11.6285516147859536  3.6750851835964076 12.1215949256266242   T   T   T
  8.7161121367602608  3.2672156373456991 12.0771177156006004   T   T   T
 16.0402152792134807  7.4629906273398747 16.7252839906213637   T   T   T
 13.0154388350462558  7.3831632996512342 16.7646619362594436   T   T   T
 10.3546343980737223  7.6316407558909978 16.7822767122370706   T   T   T
  7.4382079128675338  7.5236818842758870 16.6674334666453170   T   T   T
  4.4385150350980052  7.3579947773872689 16.6466595230459298   T   T   T
 17.5510880253366111  5.1642420333194323 16.8778884748390361   T   T   T
 14.3020556751551791  5.0450427072179416 16.9861772248818959   T   T   T
 11.4349110139097316  4.9239087505214503 16.8310112697571377   T   T   T
  8.7760059150029601  5.0446809428091113 16.9209516405533655   T   T   T
  5.8633291425004392  4.9766791431213049 16.6650256583713308   T   T   T
  5.7936437469029931  9.9673937956210672  9.7240485007127813   T   T   T
 18.6708561271705058  7.5288351007512757  9.6189412653878321   T   T   T
 15.8836448020456942  7.5150058060756377  9.6885404600401515   T   T   T
 12.9082249637348863  7.6787776555787959  9.6818315249549709   T   T   T
 10.1559981008023978  7.6662200904908735  9.6715410764567533   T   T   T
  7.4055526668216904  7.6430305577924225  9.8088795352460174   T   T   T
  4.2801155778083828  7.4834226328261346  9.6108155168008089   T   T   T
 17.2616185553570531  4.8625180950954103  9.7145200502968407   T   T   T
  7.2093071875874459 14.1518045144426701  7.3545498678091317   F   F   F
 20.1860601252448504 11.6544272471880817  7.3545498678091317   F   F   F
  5.8178666461518000  4.9394637459055852  9.6988557094163941   T   T   T
  2.7672705345681257  4.9932934606603432  9.5422927039505048   T   T   T
 15.8442095212382235  2.5984747777220312  9.7376686209223404   T   T   T
 12.9517454089760040  2.6378363094863877  9.7135390780546924   T   T   T
 10.1250823544895248  2.5447428867235229  9.7683806407731915   T   T   T
  7.2282345878240308  2.5532106018486247  9.6194631334040377   T   T   T
  4.4099361788110327  2.3221140368376942  9.6977561571602973   T   T   T
  1.3982327496424563  2.4154117552435008  9.8282747120814857   T   T   T
 14.4614674428449792 -0.0152085069164325  9.7007086660907511   T   T   T
 11.6807060127931504  0.1347130521533196  9.6687381241742010   T   T   T
 15.8115063541268945 12.5405114102703958 16.9514473232387388   T   T   T
 13.0837162943123584 12.5060166206420309 16.9525703959375349   T   T   T
 10.1843796407217848 12.3728905458740162 16.7307322882620504   T   T   T
  7.2605021106850209 12.6397068862938404 16.7298709737248146   T   T   T
 20.1197045557226133  9.8531462137354211 16.9517558997328059   T   T   T
 17.0672216156786014  9.9752940493998246 16.9043895036094618   T   T   T
 14.5784977817182515 10.2539706349798561 16.6898280417404230   T   T   T
 11.7439686276278916 10.0067211093624184 17.0093035760272961   T   T   T
  8.5489611577801519 10.1560088980691798 16.8791562449678025   T   T   T
  5.7538649029907720 10.1239423975734226 16.5837365830401104   T   T   T
 18.8249304051440767 12.5563945703690703  9.8133320534505533   T   T   T
 16.1532819553394802 12.5333541656193486  9.6733041830205391   T   T   T
 21.4462895928160933 12.2754882837109953 16.9154346203204824   T   T   T
  3.0046378743326536  0.0810976222898729  9.6687634373384963   T   T   T
 21.6279215627623387 14.1518045144426701  7.3545498678091317   F   F   F
 18.7441986877273585 14.1518045144426701  7.3545498678091317   F   F   F
 15.8604758126923819 14.1518045144426701  7.3545498678091317   F   F   F
 12.9767529376574036 14.1518045144426701  7.3545498678091317   F   F   F
 10.0930300626224252 14.1518045144426701  7.3545498678091317   F   F   F
 14.4186143751748919 11.6544272471880817  7.3545498678091317   F   F   F
 11.5348915001399135 11.6544272471880817  7.3545498678091317   F   F   F
  8.6511686251049351 11.6544272471880817  7.3545498678091317   F   F   F
  5.7674457500699567 11.6544272471880817  7.3545498678091317   F   F   F
 18.7441986877273585  9.1570499799334915  7.3545498678091317   F   F   F
 15.8604758126923802  9.1570499799334915  7.3545498678091317   F   F   F
 12.9767529376574018  9.1570499799334915  7.3545498678091317   F   F   F
 10.0930300626224234  9.1570499799334915  7.3545498678091317   F   F   F
  7.2093071875874459  9.1570499799334915  7.3545498678091317   F   F   F
  4.3255843125524676  9.1570499799334915  7.3545498678091317   F   F   F
  2.8837228750349784  1.6649181781697258  7.3545498678091317   F   F   F
 -0.0000000000000001  1.6649181781697258  7.3545498678091317   F   F   F
 23.0697830002798270 13.3193454253578061  5.0000000000000000   F   F   F
 20.1860601252448468 13.3193454253578061  5.0000000000000000   F   F   F
 17.3023372502098702 13.3193454253578061  5.0000000000000000   F   F   F
 14.4186143751748919  6.6596727126789030  7.3545498678091317   F   F   F
  5.7759250376104685 -0.1250764100194889  9.7312971639209884   T   T   T
 11.5348915001399135  6.6596727126789030  7.3545498678091317   F   F   F
  0.0339409812825042 -0.0309194982498379  9.8363469273698971   T   T   T
 17.3023372502098702  6.6596727126789030  7.3545498678091317   F   F   F
 18.7343204201886877 12.3846158268874422 16.7343860237169473   T   T   T
  8.3934847665666705 -0.0157815445425393  9.9330451731415028   T   T   T
  2.8837228750349784  6.6596727126789030  7.3545498678091317   F   F   F
 15.8604758126923802  4.1622954454243146  7.3545498678091317   F   F   F
 12.9767529376574018  4.1622954454243146  7.3545498678091317   F   F   F
 10.0930300626224234  4.1622954454243146  7.3545498678091317   F   F   F
  7.2093071875874459  4.1622954454243146  7.3545498678091317   F   F   F
 17.3023372502098702 11.6544272471880817  7.3545498678091317   F   F   F
 14.4186143751748919  8.3245908908486292  5.0000000000000000   F   F   F
 12.9767529376574036  5.8272136235940408  5.0000000000000000   F   F   F
 10.0930300626224252  5.8272136235940408  5.0000000000000000   F   F   F
  7.2093071875874459  5.8272136235940408  5.0000000000000000   F   F   F
  7.2602756252827358 10.8388321800531937 11.9337435615734080   T   T   T
 20.0874545890966196  8.5018280423251529 12.0002967000471621   T   T   T
  4.3255843125524676  5.8272136235940408  5.0000000000000000   F   F   F
 10.0930300626224234 10.8219681581032177  5.0000000000000000   F   F   F
  7.2093071875874459 10.8219681581032177  5.0000000000000000   F   F   F
 20.1860601252448504  8.3245908908486292  5.0000000000000000   F   F   F
 11.5348915001399135  8.3245908908486292  5.0000000000000000   F   F   F
  8.6511686251049351  8.3245908908486292  5.0000000000000000   F   F   F
  5.7674457500699567  8.3245908908486292  5.0000000000000000   F   F   F
 18.7441986877273585  5.8272136235940408  5.0000000000000000   F   F   F
  4.3255843125524676  0.8324590890848629  5.0000000000000000   F   F   F
  1.4418614375174892  0.8324590890848629  5.0000000000000000   F   F   F
  8.6511686251049351  6.6596727126789030  7.3545498678091317   F   F   F
  5.7674457500699567  6.6596727126789030  7.3545498678091317   F   F   F
 14.4186143751748919  3.3298363563394515  5.0000000000000000   F   F   F
 17.3023372502098702  8.3245908908486292  5.0000000000000000   F   F   F
Cartesian
  0.0000000000000000  0.0000000000000000  0.0000000000000000
  0.0000000000000000  0.0000000000000000  0.0000000000000000
  0.0000000000000000  0.0000000000000000  0.0000000000000000
  0.0000000000000000  0.0000000000000000  0.0000000000000000
  0.0000000000000000  0.0000000000000000  0.0000000000000000
  0.0000000000000000  0.0000000000000000  0.0000000000000000
  0.0000000000000000  0.0000000000000000  0.0000000000000000
  0.0000000000000000  0.0000000000000000  0.0000000000000000
  0.0000000000000000  0.0000000000000000  0.0000000000000000
  0.0000000000000000  0.0000000000000000  0.0000000000000000
  0.0000000000000000  0.0000000000000000  0.0000000000000000
  0.0000000000000000  0.0000000000000000  0.0000000000000000
  0.0000000000000000  0.0000000000000000  0.0000000000000000
  0.0000000000000000  0.0000000000000000  0.0000000000000000
  0.0000000000000000  0.0000000000000000  0.0000000000000000
  0.0000000000000000  0.0000000000000000  0.0000000000000000
  0.0000000000000000  0.0000000000000000  0.0000000000000000
  0.0000000000000000  0.0000000000000000  0.0000000000000000
  0.0000000000000000  0.0000000000000000  0.0000000000000000
  0.0013365294220928 -0.0012623447943104  0.0004702729869659
 -0.0010954791900627 -0.0004613846082721 -0.0008814747327385
 -0.0006288603204969  0.0036011784341376 -0.0009299351971089
  0.0023121473644445  0.0007007777358395 -0.0007739491238937
 -0.0010438399549456 -0.0018957073214222  0.0017383760829497
  0.0000000000000000  0.0000000000000000  0.0000000000000000
  0.0009876808912418 -0.0019079508249692 -0.0000797165229948
  0.0000000000000000  0.0000000000000000  0.0000000000000000
  0.0005313372071153  0.0001088013575222  0.0000977910085382
 -0.0012474781166027 -0.0028271752358779 -0.0018524632152496
 -0.0014021973845841 -0.0004075297336614  0.0001412106547315
  0.0002537284936710 -0.0004754784180020 -0.0029876264094851
  0.0003381299981394 -0.0002378527694672 -0.0022966241003283
 -0.0001405852751605  0.0038530728374970 -0.0015254587399819
  0.0019332722711992  0.0008288647243986  0.0003656415556035
 -0.0012401281532095 -0.0009510657521324  0.0014809680209501
  0.0001153686312765  0.0004022231303708 -0.0029579022276333
  0.0001701408920622 -0.0007703584414711 -0.0013977455425492
  0.0024038783816401  0.0016116148726640 -0.0000226737631689
  0.0017697164772225  0.0030834981702691 -0.0019397650192965
 -0.0015054133324108 -0.0004357662421790 -0.0011703194760585
 -0.0001670545135099  0.0014164938026711 -0.0008640177866075
  0.0002550558607643  0.0006090005093365 -0.0005069173078057
 -0.0005926445407220 -0.0001324785526879  0.0002976824396791
 -0.0003608065524899 -0.0002083766786055  0.0004886688135999
 -0.0001636376332777 -0.0002756123599298  0.0013391667155144
  0.0039509838151144  0.0004840717310133 -0.0011015160552214
  0.0003427153946261 -0.0006476384386645 -0.0013606942701068
 -0.0000825897239516  0.0006337409028800  0.0017553460009528
 -0.0013907304591461 -0.0001537413316201 -0.0007287917777814
 -0.0003406625416474 -0.0001730925763059  0.0010230368189666
 -0.0022603796708886  0.0007492427308060 -0.0003303690944090
 -0.0003212058279348  0.0009143419300887 -0.0015795755951605
 -0.0015943186242190  0.0008309083992821  0.0030928878744341
  0.0001012405231738 -0.0000015160695839 -0.0016601958155900
  0.0025585441694847  0.0017148297446131 -0.0000268466888628
 -0.0028832257652094  0.0027876825639309 -0.0004183410741629
  0.0012228320377831  0.0015067012346758  0.0007155938138381
 -0.0001711220540438 -0.0019551568279465  0.0029071745567197
  0.0016297457398182  0.0021711108009414  0.0005838232570516
  0.0010686947541557  0.0012921682229126  0.0027651743792876
  0.0008555616246989 -0.0017604456825303  0.0014296639591836
 -0.0005102188253768 -0.0027498575081289 -0.0015948113650166
 -0.0014131588898710  0.0004873220176697 -0.0020300817174815
  0.0016850083254423 -0.0014928617194261 -0.0005656968316949
  0.0000000000000000  0.0000000000000000  0.0000000000000000
  0.0000000000000000  0.0000000000000000  0.0000000000000000
  0.0015547095845109 -0.0008269641731262  0.0020502613998931
  0.0004051473003180  0.0000638344605156  0.0014805952254285
  0.0013247681404300  0.0017689108437703  0.0024734957433200
 -0.0009720993864247  0.0002573684854135  0.0021650268533260
  0.0006691957593531 -0.0012902120763740 -0.0014109942834473
  0.0012029332566549  0.0008205364285200 -0.0013618379394115
 -0.0034074705388432  0.0000883591572040  0.0010731262571093
  0.0007620140864033  0.0000506015665550 -0.0008607108656698
 -0.0003160831604971  0.0002686927521467 -0.0021680903080419
  0.0001458762011322  0.0042581763798204 -0.0000958108905359
  0.0001044021695602 -0.0000158127918178  0.0003345616061353
  0.0028774958533791  0.0007919076702418 -0.0013955454414754
  0.0008152716890444  0.0005040952984776  0.0028028904086480
 -0.0010824296971844  0.0017694056553532 -0.0025711722440840
 -0.0007478976024806  0.0021289834334236  0.0002930011836761
 -0.0014980456710145  0.0003751082700004 -0.0026207255187648
 -0.0020138663190494  0.0002915424528352 -0.0013433257891378
 -0.0005408106209031 -0.0015334245806171  0.0006887299426439
  0.0013647040142884 -0.0017964366832198 -0.0015409595708938
 -0.0021717096444000 -0.0010469097818027  0.0021172228561431
  0.0014782403766779 -0.0001361205034746 -0.0011143107798086
 -0.0001415436519618 -0.0008521422326355  0.0007246443886005
  0.0014643081516000 -0.0003547590705760  0.0005192347332010
 -0.0013156584911616  0.0004901193533562  0.0024481576749703
  0.0005559259744622 -0.0015149342897889 -0.0014177424542305
  0.0018439828153465  0.0000549772079422 -0.0002342672283306
  0.0022699446628094  0.0038242375039176  0.0012698962363488
 -0.0009880648623983 -0.0003619290912081  0.0016034856916285
 -0.0004458409999618 -0.0022039505695484  0.0012051562786736
  0.0006692483868381  0.0023411574403168 -0.0020796056088067
 -0.0002420603028878 -0.0013490485129967  0.0010059909213844
  0.0025906610877796 -0.0011741775936675  0.0020050376185105
 -0.0008437275500631 -0.0010858840188658 -0.0021056203473075
  0.0002696855259001 -0.0015671813242180  0.0016612335274482
 -0.0017435189613036 -0.0010599049417458 -0.0011386170992821
 -0.0003807875135199 -0.0023361360144335 -0.0007371555908683
 -0.0013288927296425  0.0004976510188086 -0.0024178533668562
 -0.0004602358995249  0.0010586771766855  0.0025023933301073
 -0.0005988735272700 -0.0000132029779800  0.0024348228549531
  0.0006658449298835  0.0007348154257683  0.0004953892323262
 -0.0001819989053917 -0.0004641927032800 -0.0008659372685123
  0.0021118246450912  0.0001558505493152 -0.0016498950567672
  0.0018254813884430  0.0003461996973770 -0.0005302727575236
  0.0001585958171603 -0.0002967898816259 -0.0014899198392473
  0.0021805905929666 -0.0031833652478148  0.0017240827827206
 -0.0010649078711806 -0.0001769109224061 -0.0030604163831625
 -0.0006354505120763  0.0001529564371425  0.0015192003925768
 -0.0011143903133368  0.0021259268323016  0.0025888782507119
 -0.0006531823506889  0.0008215029141852 -0.0018312869480564
  0.0025285617125522  0.0004752713751016  0.0042195554367511
  0.0010512139743939  0.0007975528393725  0.0036334768909045
 -0.0001829744533916  0.0022260947884246 -0.0012734328134057
 -0.0005826978330551 -0.0007065844864269  0.0009823332475641
 -0.0003392684364936  0.0019378469962669  0.0031136540818690
  0.0043231883742334  0.0008360712240847 -0.0006916649460833
 -0.0009066559384895  0.0003217134897199 -0.0001046016526270
  0.0011820903811705 -0.0021376870559323  0.0024363468332562
 -0.0004001775306704 -0.0001237568518206 -0.0042055108474680
 -0.0011412860549341  0.0013624399361630 -0.0025867462960676
 -0.0008983900850985  0.0005496286148654 -0.0018660719423700
  0.0004974291644061  0.0012294163555539  0.0037493143705032
 -0.0010934049532105 -0.0009470552283227  0.0022283049578531
  0.0015421591379920  0.0008608987344655 -0.0017725701014365
 -0.0005871117923222 -0.0004782069983087  0.0010209121764120
 -0.0000234267944064 -0.0006197468592921 -0.0019392756544888
  0.0004975757589704  0.0021298802222657  0.0008524558872657
 -0.0026133668545339 -0.0034904907057099  0.0011254357286380
 -0.0010637118625298 -0.0007927651879487 -0.0015122341979552
  0.0011259219223084 -0.0015389374639033 -0.0004880411748705
  0.0001038102502399  0.0016196382500410  0.0013722413592605
 -0.0007667067063843  0.0010875050198972  0.0002705640192183
  0.0000000000000000  0.0000000000000000  0.0000000000000000
  0.0000000000000000  0.0000000000000000  0.0000000000000000
 -0.0016772640616453 -0.0003341305049854  0.0023383918005263
 -0.0023842610910889  0.0010272837324249  0.0014803514752150
  0.0026753558019572 -0.0001828593799842 -0.0022124243434770
  0.0014043873257664  0.0014611721464270 -0.0021158609420869
 -0.0002562326511148 -0.0004457522199772  0.0008437002310673
  0.0018358119200462 -0.0016848249441200 -0.0038269157868557
  0.0023279688072584 -0.0000526751202446  0.0002938446966867
  0.0010083762757724  0.0010013600696818  0.0018461158586693
  0.0000029957030739  0.0020433185767542  0.0003741760374789
  0.0005240761140839  0.0009028785098836 -0.0002122081390045
 -0.0019159781616989  0.0002184237444079  0.0012396574447060
  0.0009423913869322  0.0010124739816145  0.0016427055082127
  0.0013427897157091  0.0017736586931593 -0.0030639745747721
  0.0037525785183778 -0.0010751220841321 -0.0006754657184000
 -0.0004537228825958 -0.0004385303930804  0.0020307194294736
  0.0001282455207676 -0.0006575987168645 -0.0014616398967660
 -0.0001627519998264  0.0017307170072670  0.0012463690515513
  0.0000571260586394  0.0016028745427800 -0.0002467078662145
 -0.0017530838053737 -0.0004625118895992 -0.0009928845855404
 -0.0006891631758705  0.0009525778783219  0.0018112483833156
 -0.0004155656620942  0.0030087891272759 -0.0015461163189148
 -0.0001735469783721 -0.0012958556356849 -0.0021358594737227
 -0.0004532748335843 -0.0008419951736277 -0.0018867860959931
  0.0022294608278076  0.0002564862844637  0.0005288364658812
  0.0000000000000000  0.0000000000000000  0.0000000000000000
  0.0000000000000000  0.0000000000000000  0.0000000000000000
  0.0000000000000000  0.0000000000000000  0.0000000000000000
  0.0000000000000000  0.0000000000000000  0.0000000000000000
  0.0000000000000000  0.0000000000000000  0.0000000000000000
  0.0000000000000000  0.0000000000000000  0.0000000000000000
  0.0000000000000000  0.0000000000000000  0.0000000000000000
  0.0000000000000000  0.0000000000000000  0.0000000000000000
  0.0000000000000000  0.0000000000000000  0.0000000000000000
  0.0000000000000000  0.0000000000000000  0.0000000000000000
  0.0000000000000000  0.0000000000000000  0.0000000000000000
  0.0000000000000000  0.0000000000000000  0.0000000000000000
  0.0000000000000000  0.0000000000000000  0.0000000000000000
  0.0000000000000000  0.0000000000000000  0.0000000000000000
  0.0000000000000000  0.0000000000000000  0.0000000000000000
  0.0000000000000000  0.0000000000000000  0.0000000000000000
  0.0000000000000000  0.0000000000000000  0.0000000000000000
  0.0000000000000000  0.0000000000000000  0.0000000000000000
  0.0000000000000000  0.0000000000000000  0.0000000000000000
  0.0000000000000000  0.0000000000000000  0.0000000000000000
  0.0000000000000000  0.0000000000000000  0.0000000000000000
 -0.0032089395343421  0.0023466931455782  0.0017487671976426
  0.0000000000000000  0.0000000000000000  0.0000000000000000
 -0.0005612303963026 -0.0014145849972591 -0.0000040625296674
  0.0000000000000000  0.0000000000000000  0.0000000000000000
  0.0000248163569848 -0.0012025067533215 -0.0006035335108692
  0.0002446153016116 -0.0014017502329817 -0.0006974883766546
  0.0000000000000000  0.0000000000000000  0.0000000000000000
  0.0000000000000000  0.0000000000000000  0.0000000000000000
  0.0000000000000000  0.0000000000000000  0.0000000000000000
  0.0000000000000000  0.0000000000000000  0.0000000000000000
  0.0000000000000000  0.0000000000000000  0.0000000000000000
  0.0000000000000000  0.0000000000000000  0.0000000000000000
  0.0000000000000000  0.0000000000000000  0.0000000000000000
  0.0000000000000000  0.0000000000000000  0.0000000000000000
  0.0000000000000000  0.0000000000000000  0.0000000000000000
  0.0000000000000000  0.0000000000000000  0.0000000000000000
  0.0003397022293761 -0.0015663411833471 -0.0000783545861412
 -0.0011821815558467  0.0007814978713118 -0.0000527553516658
  0.0000000000000000  0.0000000000000000  0.0000000000000000
  0.0000000000000000  0.0000000000000000  0.0000000000000000
  0.0000000000000000  0.0000000000000000  0.0000000000000000
  0.0000000000000000  0.0000000000000000  0.0000000000000000
  0.0000000000000000  0.0000000000000000  0.0000000000000000
  0.0000000000000000  0.0000000000000000  0.0000000000000000
  0.0000000000000000  0.0000000000000000  0.0000000000000000
  0.0000000000000000  0.0000000000000000  0.0000000000000000
  0.0000000000000000  0.0000000000000000  0.0000000000000000
  0.0000000000000000  0.0000000000000000  0.0000000000000000
  0.0000000000000000  0.0000000000000000  0.0000000000000000
  0.0000000000000000  0.0000000000000000  0.0000000000000000
  0.0000000000000000  0.0000000000000000  0.0000000000000000
  0.0000000000000000  0.0000000000000000  0.0000000000000000
